NAME          BLANK   
ROWS
 N  OBJROW
 L  row-1
 L  row-2
 L  row-3
COLUMNS
    x(1)      OBJROW     -1.           row-1      -2.        
    x(1)      row-2     2.             row-3     9.          
    x(2)      OBJROW     -2.           row-1     2.          
    x(2)      row-2     2.             row-3      -4.        
RHS
    RHS       row-1     3.             row-2     9.          
    RHS       row-3     21.         
ENDATA
